money_limit = 1505;
menu_prices = [215, 275, 335, 355, 420,580];
menu_names = ["fruit", "fries", "salad", "wings", "sticks", "sampler"];
yumyum_factors = [1, 10, 9, 7, 4, 2];
available = [2,4,1,2,3,2];